(set-info :smt-lib-version 2.6)
(set-logic QF_S)
(set-info :source |
Generated by: Oliver Markgraf, Hongjian Jiang, Daniel Stan, Anthony W. Lin, Philipp Ruemmer
Generated on: 2025-04-08
Application: Using String Solvers to solve RMC problems encoded as CHC over Strings
Target solver: cvc5, OSTRICH, Z3, Z3alpha, Z3-noodler
Time limit: 60.0
Benchmarks are extracted by running HornStr https://arg-git.informatik.uni-kl.de/pub/string-chc-lib on all benchmarks
provided in the repository and gathering the string queries sent to the string solvers.
|)
(set-info :license "https://creativecommons.org/licenses/by/4.0/")
(set-info :category "industrial")
(set-info :status unknown)
(declare-fun varout () String)
(assert (let ((a!1 (re.* (re.union (re.union (str.to_re "c") (str.to_re "i"))
                           (str.to_re "r")))))
  (str.in_re varout a!1)))
(declare-fun varin () String)
(assert (let ((a!1 (re.* (re.union (re.union (str.to_re "c") (str.to_re "i"))
                           (str.to_re "r")))))
  (str.in_re varin a!1)))
(declare-fun X () String)
(declare-fun reg1 () String)
(declare-fun Y () String)
(declare-fun reg0 () String)
(declare-fun isin () Bool)
(declare-fun isout () Bool)
(assert (let ((a!1 (re.* (re.union (re.union (str.to_re "i") (str.to_re "r"))
                           (str.to_re "c")))))
  (or (and true
           (= X (str.++ reg1))
           (= Y (str.++ reg1))
           (str.in_re reg0 a!1)
           (str.in_re reg1 a!1)
           (= X varin)
           isin
           (= Y varout)
           isout))))
(assert (let ((a!1 (re.union (str.to_re "")
                     (re.++ (str.to_re "r") (re.* (str.to_re "r")))))
      (a!2 (re.++ (str.to_re "r")
                  (re.++ (re.* (str.to_re "r"))
                         (re.union (str.to_re "c") (str.to_re "i")))))
      (a!4 (re.++ (re.union (str.to_re "i") (str.to_re "r"))
                  (re.* (re.union (str.to_re "i") (str.to_re "r")))))
      (a!7 (re.++ (re.* (re.union (str.to_re "i") (str.to_re "r")))
                  (str.to_re "c"))))
(let ((a!3 (re.++ (re.* (str.to_re "r"))
                  (re.union (re.union (str.to_re "c") (str.to_re "i")) a!2)))
      (a!5 (re.++ (re.* (re.union (str.to_re "i") (str.to_re "r")))
                  (re.union (str.to_re "") a!4)))
      (a!8 (re.union (str.to_re "c")
                     (re.++ (re.union (str.to_re "i") (str.to_re "r")) a!7))))
(let ((a!6 (re.union (re.++ (re.* (str.to_re "r")) a!1) (re.++ a!3 a!5)))
      (a!9 (re.++ (re.* (re.union (str.to_re "i") (str.to_re "r"))) a!8)))
  (str.in_re varin (re.union a!6 (re.++ (re.++ a!3 a!9) a!5)))))))
(assert (let ((a!1 (re.++ (str.to_re "r")
                  (re.++ (re.* (str.to_re "r"))
                         (re.union (str.to_re "c") (str.to_re "i")))))
      (a!3 (re.++ (re.* (re.union (str.to_re "i") (str.to_re "r")))
                  (str.to_re "c")))
      (a!6 (re.* (re.union (re.union (str.to_re "c") (str.to_re "i"))
                           (str.to_re "r")))))
(let ((a!2 (re.++ (re.* (str.to_re "r"))
                  (re.union (re.union (str.to_re "c") (str.to_re "i")) a!1)))
      (a!4 (re.union (str.to_re "c")
                     (re.++ (re.union (str.to_re "i") (str.to_re "r")) a!3)))
      (a!7 (re.++ (re.union (re.union (str.to_re "c") (str.to_re "i"))
                            (str.to_re "r"))
                  a!6)))
(let ((a!5 (re.++ (re.* (re.union (str.to_re "i") (str.to_re "r"))) a!4)))
(let ((a!8 (re.++ (re.++ (re.++ a!2 a!5) a!5)
                  (re.++ a!6 (re.union (str.to_re "") a!7)))))
  (str.in_re varout a!8))))))
(check-sat)
(exit)
